generators/data/easy_99_SAT.qdimacs
p cnf 35 98
a 8 7 0
e 1 2 3 4 5 6 9 10 11 12 13 14 15 16 17 18 19 20 21 22 23 24 25 26 27 28 29 30 31 32 33 34 35 0
2 1 0
2 -1 0
-3 4 -5 0
3 -4 -5 0
-3 -4 5 0
3 4 5 0
-2 -5 -6 0
2 5 -6 0
-2 5 6 0
2 -5 6 0
-9 -3 0
-9 -8 0
3 8 9 0
-7 -9 -10 0
7 9 -10 0
-7 9 10 0
7 -9 10 0
-7 11 0
7 11 0
9 -11 -12 0
-9 11 -12 0
9 11 12 0
-9 -11 12 0
-13 -10 0
-13 12 0
10 -12 13 0
-14 6 0
-14 -13 0
-6 13 14 0
-17 -15 0
-17 -16 0
15 16 17 0
18 -8 0
18 -17 0
8 17 -18 0
7 3 -19 0
-7 -3 -19 0
7 -3 19 0
-7 3 19 0
20 3 0
20 19 0
-3 -19 -20 0
22 -20 0
22 -21 0
20 21 -22 0
23 -1 0
23 7 0
1 -7 -23 0
-3 -24 0
3 -24 0
25 4 0
25 24 0
-4 -24 -25 0
23 25 -26 0
-23 -25 -26 0
23 -25 26 0
-23 25 26 0
1 -9 -27 0
-1 9 -27 0
1 9 27 0
-1 -9 27 0
-28 -27 0
-28 -11 0
27 11 28 0
-29 26 0
-29 -28 0
-26 28 29 0
22 29 -30 0
-22 -29 -30 0
22 -29 30 0
-22 29 30 0
31 7 0
31 -8 0
-7 8 -31 0
31 -25 -32 0
-31 25 -32 0
31 25 32 0
-31 -25 32 0
-30 32 -33 0
30 -32 -33 0
-30 -32 33 0
30 32 33 0
-34 18 0
-34 -33 0
-18 33 34 0
35 14 0
35 -34 0
-14 34 -35 0
27 16 28 17 8 0
-27 -23 -10 -30 11 0
-21 2 -13 -29 26 8 15 0
-3 -23 -29 14 0
9 -31 -13 0
4 -6 -17 22 -15 10 0
-17 -31 -12 1 -23 -6 -22 0
-1 -26 -28 17 23 -35 0
-6 20 -22 -24 25 0
35 0
