sat_easy_train/easy_99_SAT.dimacs
p cnf 117 398
-2 -3 -4 0
2 3 -4 0
-2 3 4 0
2 -3 4 0
5 -1 0
5 4 0
1 -4 -5 0
-6 5 0
-6 3 0
-5 -3 6 0
-9 7 0
-9 -8 0
-7 8 9 0
-10 -6 0
-10 -9 0
6 9 10 0
-11 -12 -13 0
11 12 -13 0
-11 12 13 0
11 -12 13 0
-14 13 0
-14 7 0
-13 -7 14 0
-15 -7 0
-15 -14 0
7 14 15 0
-16 -10 0
-16 15 0
10 -15 16 0
-17 -12 0
-17 -5 0
12 5 17 0
-19 18 0
-19 3 0
-18 -3 19 0
-20 -6 0
-20 19 0
6 -19 20 0
-20 -12 -21 0
20 12 -21 0
-20 12 21 0
20 -12 21 0
-22 17 0
-22 21 0
-17 -21 22 0
23 9 0
23 2 0
-9 -2 -23 0
24 22 0
24 -23 0
-22 23 -24 0
-16 24 -25 0
16 -24 -25 0
-16 -24 25 0
16 24 25 0
27 -26 0
27 18 0
26 -18 -27 0
28 26 0
28 27 0
-26 -27 -28 0
13 -29 -30 0
-13 29 -30 0
13 29 30 0
-13 -29 30 0
28 30 -31 0
-28 -30 -31 0
28 -30 31 0
-28 30 31 0
18 13 -32 0
-18 -13 -32 0
18 -13 32 0
-18 13 32 0
-34 32 0
-34 33 0
-32 -33 34 0
35 -19 0
35 29 0
19 -29 -35 0
-36 -34 0
-36 35 0
34 -35 36 0
-37 31 0
-37 36 0
-31 -36 37 0
-40 -38 0
-40 -39 0
38 39 40 0
-41 29 0
-41 2 0
-29 -2 41 0
-42 -40 0
-42 41 0
40 -41 42 0
43 -12 0
43 42 0
12 -42 -43 0
44 43 0
44 40 0
-43 -40 -44 0
45 -44 0
45 43 0
44 -43 -45 0
-46 -45 0
-46 20 0
45 -20 46 0
-47 33 -48 0
47 -33 -48 0
-47 -33 48 0
47 33 48 0
-12 29 -49 0
12 -29 -49 0
-12 -29 49 0
12 29 49 0
48 -49 -50 0
-48 49 -50 0
48 49 50 0
-48 -49 50 0
-52 -48 0
-52 51 0
48 -51 52 0
52 -53 0
-52 -53 0
53 -54 -55 0
-53 54 -55 0
53 54 55 0
-53 -54 55 0
-50 -55 -56 0
50 55 -56 0
-50 55 56 0
50 -55 56 0
38 19 -57 0
-38 -19 -57 0
38 -19 57 0
-38 19 57 0
57 29 -58 0
-57 -29 -58 0
57 -29 58 0
-57 29 58 0
59 8 0
59 47 0
-8 -47 -59 0
60 -58 0
60 -59 0
58 59 -60 0
-18 38 -61 0
18 -38 -61 0
-18 -38 61 0
18 38 61 0
-62 60 0
-62 61 0
-60 -61 62 0
-56 -62 -63 0
56 62 -63 0
-56 62 63 0
56 -62 63 0
46 -63 -64 0
-46 63 -64 0
46 63 64 0
-46 -63 64 0
65 -53 0
65 -19 0
53 19 -65 0
-65 9 -66 0
65 -9 -66 0
-65 -9 66 0
65 9 66 0
43 66 -67 0
-43 -66 -67 0
43 -66 67 0
-43 66 67 0
-67 -57 -68 0
67 57 -68 0
-67 57 68 0
67 -57 68 0
-69 64 0
-69 -68 0
-64 68 69 0
-57 -42 -70 0
57 42 -70 0
-57 42 70 0
57 -42 70 0
1 -32 -71 0
-1 32 -71 0
1 32 71 0
-1 -32 71 0
72 5 0
72 3 0
-5 -3 -72 0
43 53 -73 0
-43 -53 -73 0
43 -53 73 0
-43 53 73 0
6 -4 -74 0
-6 4 -74 0
6 4 74 0
-6 -4 74 0
-75 -73 0
-75 74 0
73 -74 75 0
-76 -72 0
-76 75 0
72 -75 76 0
-71 -76 -77 0
71 76 -77 0
-71 76 77 0
71 -76 77 0
70 77 -78 0
-70 -77 -78 0
70 -77 78 0
-70 77 78 0
-69 -78 -79 0
69 78 -79 0
-69 78 79 0
69 -78 79 0
-65 3 -80 0
65 -3 -80 0
-65 -3 80 0
65 3 80 0
81 -39 0
81 -59 0
39 59 -81 0
51 -81 -82 0
-51 81 -82 0
51 81 82 0
-51 -81 82 0
58 7 -83 0
-58 -7 -83 0
58 -7 83 0
-58 7 83 0
84 18 0
84 33 0
-18 -33 -84 0
83 84 -85 0
-83 -84 -85 0
83 -84 85 0
-83 84 85 0
86 -82 0
86 -85 0
82 85 -86 0
80 86 -87 0
-80 -86 -87 0
80 -86 87 0
-80 86 87 0
-88 -79 0
-88 87 0
79 -87 88 0
-89 37 0
-89 88 0
-37 -88 89 0
-13 11 -90 0
13 -11 -90 0
-13 -11 90 0
13 11 90 0
58 -32 -91 0
-58 32 -91 0
58 32 91 0
-58 -32 91 0
92 91 0
92 7 0
-91 -7 -92 0
93 -43 0
93 -40 0
43 40 -93 0
-94 -93 0
-94 -48 0
93 48 94 0
94 -3 -95 0
-94 3 -95 0
94 3 95 0
-94 -3 95 0
-96 92 0
-96 -95 0
-92 95 96 0
97 84 0
97 49 0
-84 -49 -97 0
98 -29 0
98 -40 0
29 40 -98 0
99 -7 0
99 98 0
7 -98 -99 0
100 97 0
100 -99 0
-97 99 -100 0
96 -100 -101 0
-96 100 -101 0
96 100 101 0
-96 -100 101 0
-90 -101 -102 0
90 101 -102 0
-90 101 102 0
90 -101 102 0
-103 33 0
-103 -14 0
-33 14 103 0
102 -103 -104 0
-102 103 -104 0
102 103 104 0
-102 -103 104 0
-105 -89 0
-105 -104 0
89 104 105 0
106 -14 0
106 18 0
14 -18 -106 0
-107 -5 0
-107 52 0
5 -52 107 0
108 -49 0
108 -43 0
49 43 -108 0
-107 108 -109 0
107 -108 -109 0
-107 -108 109 0
107 108 109 0
39 -51 -110 0
-39 51 -110 0
39 51 110 0
-39 -51 110 0
11 110 -111 0
-11 -110 -111 0
11 -110 111 0
-11 110 111 0
-112 26 0
-112 33 0
-26 -33 112 0
-113 111 0
-113 -112 0
-111 112 113 0
-109 113 -114 0
109 -113 -114 0
-109 -113 114 0
109 113 114 0
-106 -114 -115 0
106 114 -115 0
-106 114 115 0
106 -114 115 0
-116 105 0
-116 115 0
-105 -115 116 0
117 25 0
117 116 0
-25 -116 -117 0
-36 86 41 -5 45 -85 0
53 -91 0
-44 51 16 0
-63 -88 -42 -4 34 60 0
115 18 -74 0
-102 -67 0
-46 -42 -53 60 63 67 0
-5 -114 46 0
-101 55 -75 -42 0
68 -41 77 -79 0
-85 90 15 -103 108 0
-84 -65 -32 0
-87 -16 0
-10 -22 -90 -110 -107 0
53 -94 -21 103 -86 0
-2 -100 -113 74 0
60 -43 92 -91 0
36 -81 -82 0
-93 -79 0
59 -95 -109 -24 -98 0
-87 13 0
25 -77 31 -72 -113 -92 0
-21 5 84 71 -45 0
8 -6 -90 0
-41 -110 44 0
-88 117 78 24 -50 0
6 37 48 0
5 115 0
-59 -109 24 0
8 13 -76 0
-43 -11 0
-9 -44 23 0
21 -58 -115 0
66 114 84 -116 -91 0
30 -24 0
-89 -96 -58 0
-22 -41 78 -2 114 -42 0
78 101 33 99 -77 0
-81 -33 0
-74 -105 0
-43 -74 0
81 -55 -117 67 23 0
-50 -82 -38 -89 -13 -14 0
17 42 0
-62 102 -4 35 -53 -80 0
71 -96 -99 -62 80 0
-49 78 -29 0
-53 -10 0
29 97 -93 -6 -61 -102 0
17 -1 102 0
-1 -9 104 67 0
-18 -31 -55 0
117 0
